32	0

0	1	2
10	1	3
6	1	4
1	1	5
7	1	6
6	2	7	8
7	1	9
5	1	9
8	1	10
6	1	11
5	1	12
9	1	13
5	2	14	16
5	2	15	17
8	2	18	20
7	1	17
1	2	18	20
2	1	19
10	1	21
8	1	21
1	1	22
7	1	23
3	1	24
7	1	25
7	2	26	27
9	1	28
8	1	28
10	2	29	30
2	1	31
5	1	31
5	1	32
0	0
